
Log started (V11.0.0) Fri May 16 08:52:09 2008

Tried aggregator 1 time.
Reduced MIP has 240 rows, 8001 columns, and 16040 nonzeros.
Presolve time =    0.06 sec.
Clique table members: 200.
MIP emphasis: balance optimality and feasibility.
MIP search method: dynamic search.
Parallel mode: none, using 1 thread.
Root relaxation solution time =    0.50 sec.

        Nodes                                         Cuts/
   Node  Left     Objective  IInf  Best Integer     Best Node    ItCnt     Gap

*     0+    0                         3465.0000      184.3411      590   94.68%
*     0+    0                          280.0000      184.3411      590   34.16%
      0     0      185.1645    76      280.0000      Fract: 6      614   33.87%
*     0+    0                          228.0000      185.1645      614   18.79%
      0     0      190.2933    81      228.0000      Cuts: 24     1286   16.54%
*     0+    0                          225.0000      190.2933     1286   15.43%
      0     0      190.7248    79      225.0000       Cuts: 7     1465   15.23%
*     0+    0                          223.0000      190.7248     1465   14.47%
      0     0      190.9485    74      223.0000       Cuts: 8     1509   14.37%
*     0+    0                          221.0000      190.9485     1509   13.60%
      0     0      191.2110    80      221.0000       Cuts: 7     1555   13.48%
*     0+    0                          214.0000      191.2110     1555   10.65%
      0     0      191.3797    84      214.0000       Cuts: 4     1571   10.57%
      0     0      191.5943    86      214.0000       Cuts: 5     1642   10.47%
      0     0      191.8769    77      214.0000       Cuts: 5     1687   10.34%
*     0+    0                          213.0000      191.8769     1687    9.92%
      0     0      191.8796    91      213.0000       Cuts: 6     1744    9.92%
      0     0      192.0299    90      213.0000       Cuts: 3     1801    9.85%
*     0+    0                          211.0000      192.0299     1801    8.99%
      0     0      192.1398    92      211.0000       Cuts: 8     1836    8.94%
*     0+    0                          209.0000      192.1398     1836    8.07%
      0     0      192.7767    86      209.0000       Cuts: 5     1909    7.76%
      0     0      192.7790    85      209.0000       Cuts: 3     1919    7.76%
*     0+    0                          208.0000      192.7790     1919    7.32%
*     0+    0                          207.0000      192.7790     1919    6.87%
*     0+    0                          204.0000      192.7790     1919    5.50%
      0     2      192.7790    85      204.0000      192.7790     1919    5.50%
*    10+    9                          203.0000      192.7913     2043    5.03%
*    30+   23                          202.0000      192.7913     3511    4.56%
    100    93      194.0000    52      202.0000      192.7913     4697    4.56%
    200   160      195.0000    50      202.0000      192.7913     8795    4.56%
    300   223      195.6739    45      202.0000      192.7913    15334    4.56%
    400   288      196.0000    31      202.0000      192.7913    21557    4.56%
*   476+  236                          200.0000      197.8638    26551    1.07%
    500   237      199.0000    26      200.0000      197.8638    26938    1.07%
    600   209      199.0000    17      200.0000      197.8638    29950    1.07%
    700   188      199.0000    15      200.0000      197.8638    32212    1.07%
    800   206      199.0000    38      200.0000      197.8638    35320    1.07%
    900   304      199.0000    26      200.0000      197.8638    38375    1.07%
   1000   392      199.0000    25      200.0000      197.8638    41529    1.07%
Elapsed time =  52.00 sec. (tree size =  2.52 MB, solutions = 16)
   1100   475      199.0000    26      200.0000      197.8638    46673    1.07%
   1200   556      199.0000    50      200.0000      197.8638    55106    1.07%
   1300   640      199.0000    19      200.0000      197.8638    58605    1.07%
   1400   690      199.0000    11      200.0000      197.8638    63588    1.07%
*  1476+    8                          199.0000      197.8638    66580    0.57%

Cover cuts applied:  36
Mixed integer rounding cuts applied:  20
Zero-half cuts applied:  1
Gomory fractional cuts applied:  1

Solution pool: 17 solutions saved.

MIP - Integer optimal solution:  Objective = 1.9900000000e+002
Solution time =   67.88 sec.  Iterations = 66865  Nodes = 1483


Incumbent solution
Variable Name           Solution Value
Cmax                        199.000000
X_1_40                        1.000000
X_2_34                        1.000000
X_3_28                        1.000000
X_4_13                        1.000000
X_5_23                        1.000000
X_6_4                         1.000000
X_7_10                        1.000000
X_8_6                         1.000000
X_9_5                         1.000000
X_10_30                       1.000000
X_11_13                       1.000000
X_12_37                       1.000000
X_13_40                       1.000000
X_14_32                       1.000000
X_15_26                       1.000000
X_16_34                       1.000000
X_17_26                       1.000000
X_18_23                       1.000000
X_19_17                       1.000000
X_20_12                       1.000000
X_21_39                       1.000000
X_22_6                        1.000000
X_23_6                        1.000000
X_24_27                       1.000000
X_25_26                       1.000000
X_26_33                       1.000000
X_27_3                        1.000000
X_28_29                       1.000000
X_29_22                       1.000000
X_30_40                       1.000000
X_31_27                       1.000000
X_32_32                       1.000000
X_33_35                       1.000000
X_34_8                        1.000000
X_35_6                        1.000000
X_36_40                       1.000000
X_37_1                        1.000000
X_38_4                        1.000000
X_39_23                       1.000000
X_40_40                       1.000000
X_41_40                       1.000000
X_42_26                       1.000000
X_43_40                       1.000000
X_44_34                       1.000000
X_45_9                        1.000000
X_46_20                       1.000000
X_47_25                       1.000000
X_48_7                        1.000000
X_49_17                       1.000000
X_50_34                       1.000000
X_51_10                       1.000000
X_52_26                       1.000000
X_53_6                        1.000000
X_54_40                       1.000000
X_55_4                        1.000000
X_56_40                       1.000000
X_57_37                       1.000000
X_58_10                       1.000000
X_59_12                       1.000000
X_60_2                        1.000000
X_61_4                        1.000000
X_62_40                       1.000000
X_63_15                       1.000000
X_64_29                       1.000000
X_65_26                       1.000000
X_66_15                       1.000000
X_67_34                       1.000000
X_68_2                        1.000000
X_69_12                       1.000000
X_70_10                       1.000000
X_71_31                       1.000000
X_72_6                        1.000000
X_73_26                       1.000000
X_74_10                       1.000000
X_75_17                       1.000000
X_76_26                       1.000000
X_77_26                       1.000000
X_78_24                       1.000000
X_79_7                        1.000000
X_80_17                       1.000000
X_81_26                       1.000000
X_82_14                       1.000000
X_83_32                       1.000000
X_84_31                       1.000000
X_85_4                        1.000000
X_86_21                       1.000000
X_87_9                        1.000000
X_88_36                       1.000000
X_89_26                       1.000000
X_90_17                       1.000000
X_91_26                       1.000000
X_92_17                       1.000000
X_93_40                       1.000000
X_94_27                       1.000000
X_95_10                       1.000000
X_96_26                       1.000000
X_97_11                       1.000000
X_98_10                       1.000000
X_99_9                        1.000000
X_100_40                      1.000000
X_101_4                       1.000000
X_102_6                       1.000000
X_103_19                      1.000000
X_104_38                      1.000000
X_105_2                       1.000000
X_106_34                      1.000000
X_107_31                      1.000000
X_108_31                      1.000000
X_109_32                      1.000000
X_110_4                       1.000000
X_111_1                       1.000000
X_112_40                      1.000000
X_113_26                      1.000000
X_114_14                      1.000000
X_115_7                       1.000000
X_116_27                      1.000000
X_117_26                      1.000000
X_118_26                      1.000000
X_119_18                      1.000000
X_120_36                      1.000000
X_121_18                      1.000000
X_122_33                      1.000000
X_123_25                      1.000000
X_124_37                      1.000000
X_125_35                      1.000000
X_126_26                      1.000000
X_127_36                      1.000000
X_128_24                      1.000000
X_129_6                       1.000000
X_130_9                       1.000000
X_131_26                      1.000000
X_132_9                       1.000000
X_133_6                       1.000000
X_134_16                      1.000000
X_135_10                      1.000000
X_136_40                      1.000000
X_137_29                      1.000000
X_138_20                      1.000000
X_139_6                       1.000000
X_140_6                       1.000000
X_141_34                      1.000000
X_142_34                      1.000000
X_143_38                      1.000000
X_144_14                      1.000000
X_145_39                      1.000000
X_146_16                      1.000000
X_147_6                       1.000000
X_148_40                      1.000000
X_149_6                       1.000000
X_150_7                       1.000000
X_151_10                      1.000000
X_152_30                      1.000000
X_153_26                      1.000000
X_154_27                      1.000000
X_155_37                      1.000000
X_156_10                      1.000000
X_157_11                      1.000000
X_158_34                      1.000000
X_159_40                      1.000000
X_160_28                      1.000000
X_161_15                      1.000000
X_162_37                      1.000000
X_163_40                      1.000000
X_164_10                      1.000000
X_165_10                      1.000000
X_166_27                      1.000000
X_167_27                      1.000000
X_168_6                       1.000000
X_169_36                      1.000000
X_170_40                      1.000000
X_171_27                      1.000000
X_172_22                      1.000000
X_173_1                       1.000000
X_174_26                      1.000000
X_175_9                       1.000000
X_176_10                      1.000000
X_177_40                      1.000000
X_178_10                      1.000000
X_179_27                      1.000000
X_180_25                      1.000000
X_181_5                       1.000000
X_182_26                      1.000000
X_183_19                      1.000000
X_184_40                      1.000000
X_185_26                      1.000000
X_186_26                      1.000000
X_187_21                      1.000000
X_188_24                      1.000000
X_189_37                      1.000000
X_190_16                      1.000000
X_191_31                      1.000000
X_192_4                       1.000000
X_193_3                       1.000000
X_194_27                      1.000000
X_195_37                      1.000000
X_196_40                      1.000000
X_197_15                      1.000000
X_198_9                       1.000000
X_199_8                       1.000000
X_200_40                      1.000000
All other variables in the range 1-8001 are 0.
